(set-logic HORN)
(declare-fun state (Int Int Int Int Int Int Int Int Int (Array Int Int) (Array Int Int) Int Int Int Int Int Int Int Int Int Int Int Int Int (Array Int Int) (Array Int Int) Int Int Int Int Int Int Int Int Int Int Int Int Int Int Int Int Bool Bool Bool (Array Int Int)) Bool)
(assert (forall ((|A| Int) (|B| Int) (|C| Int) (|R1| Int) (|E| Int) (|F| Int) (|G| Int) (|H| Int) (|I| Int) (|J| (Array Int Int)) (|K| (Array Int Int)) (|L| Int) (|M| Int) (|N| Int) (|O| Int) (|P| Int) (|Q| Int) (|R| Int) (|S1| Int) (|T| Int) (|U| Int) (|V| Int) (|W| Int) (|X| Int) (|T1| (Array Int Int)) (|Z| (Array Int Int)) (|A1| Int) (|B1| Int) (|C1| Int) (|D1| Int) (|E1| Int) (|F1| Int) (|G1| Int) (|H1| Int) (|I1| Int) (|J1| Int) (|K1| Int) (|L1| Int) (|M1| Int) (|N1| Int) (|O1| Int) (|P1| Int) (|Q1| Bool) (|.loc.3| Bool) (|.loc.4| Bool) (|S1_0| (Array Int Int)) (|.x.226| Int) (|.x.225| Int) (|.x.224| Int) (|.x.223| Int) (|.x.222| (Array Int Int)) (|.x.220| Int) (|.x.219| Int) (|.x.218| Int) (|.x.217| Int) (|.x.216| Int) (|.x.214| Int) (|.x.213| Int) (|.x.212| Int) (|.x.211| Int) (|.x.210| Int) (|.x.209| Int) (|.x.208| Int) (|.x.207| (Array Int Int)) (|.x.205| Int) (|.x.204| Int) (|.x.203| Int) (|.x.202| Int) (|.x.201| Int) (|.x.199| Int) (|.x.197| Int) (|.x.198| Int) (|.loc.5| Bool) (|.loc.6| Bool) (|.x.234| Int) (|.x.236| Int) (|.x.237| Int) (|.x.206| (Array Int Int)) (|.x.221| (Array Int Int)) (|.x.229| Int) (|.x.232| Int) (|.x.231| Int) (|.x.235| Int) (|.x.227| Int) (|.x.238| Int) (|.x.230| Int) (|.x.200| Int) (|.x.215| Int) (|Q1_4| Bool) (|.x.228| Int) (|.x.233| Int) (|.xtv.1| (Array Int Int))) (=> (and (and (not .loc.4) (not .loc.3)) (and (and (and (and (= J K) (not Q1)) (= R1 E)) (= T1 Z)) (= S1 T))) (state |A| |B| |C| |R1| |E| |F| |G| |H| |I| |J| |K| |L| |M| |N| |O| |P| |Q| |R| |S1| |T| |U| |V| |W| |X| |T1| |Z| |A1| |B1| |C1| |D1| |E1| |F1| |G1| |H1| |I1| |J1| |K1| |L1| |M1| |N1| |O1| |P1| |Q1| |.loc.3| |.loc.4| |S1_0|))))
(assert (forall ((|A| Int) (|B| Int) (|C| Int) (|R1| Int) (|E| Int) (|F| Int) (|G| Int) (|H| Int) (|I| Int) (|J| (Array Int Int)) (|K| (Array Int Int)) (|L| Int) (|M| Int) (|N| Int) (|O| Int) (|P| Int) (|Q| Int) (|R| Int) (|S1| Int) (|T| Int) (|U| Int) (|V| Int) (|W| Int) (|X| Int) (|T1| (Array Int Int)) (|Z| (Array Int Int)) (|A1| Int) (|B1| Int) (|C1| Int) (|D1| Int) (|E1| Int) (|F1| Int) (|G1| Int) (|H1| Int) (|I1| Int) (|J1| Int) (|K1| Int) (|L1| Int) (|M1| Int) (|N1| Int) (|O1| Int) (|P1| Int) (|Q1| Bool) (|.loc.3| Bool) (|.loc.4| Bool) (|S1_0| (Array Int Int)) (|.x.226| Int) (|.x.225| Int) (|.x.224| Int) (|.x.223| Int) (|.x.222| (Array Int Int)) (|.x.220| Int) (|.x.219| Int) (|.x.218| Int) (|.x.217| Int) (|.x.216| Int) (|.x.214| Int) (|.x.213| Int) (|.x.212| Int) (|.x.211| Int) (|.x.210| Int) (|.x.209| Int) (|.x.208| Int) (|.x.207| (Array Int Int)) (|.x.205| Int) (|.x.204| Int) (|.x.203| Int) (|.x.202| Int) (|.x.201| Int) (|.x.199| Int) (|.x.197| Int) (|.x.198| Int) (|.loc.5| Bool) (|.loc.6| Bool) (|.x.234| Int) (|.x.236| Int) (|.x.237| Int) (|.x.206| (Array Int Int)) (|.x.221| (Array Int Int)) (|.x.229| Int) (|.x.232| Int) (|.x.231| Int) (|.x.235| Int) (|.x.227| Int) (|.x.238| Int) (|.x.230| Int) (|.x.200| Int) (|.x.215| Int) (|Q1_4| Bool) (|.x.228| Int) (|.x.233| Int) (|.xtv.1| (Array Int Int))) (=> (and (state |A| |B| |C| |R1| |E| |F| |G| |H| |I| |J| |K| |L| |M| |N| |O| |P| |Q| |R| |S1| |T| |U| |V| |W| |X| |T1| |Z| |A1| |B1| |C1| |D1| |E1| |F1| |G1| |H1| |I1| |J1| |K1| |L1| |M1| |N1| |O1| |P1| |Q1| |.loc.3| |.loc.4| |S1_0|) (let ((.def_57 (not .loc.3))) (let ((.def_153 (= .x.234 0))) (let ((.def_155 (= .x.236 0))) (let ((.def_201 (and (= (store J .x.237 4) .x.206) (and (= (store S1_0 .x.237 1) .x.221) (and (= (select S1_0 .x.237) 0) (and (= .x.229 0) (and (not (= .x.237 0)) (and (= .x.234 .x.232) (and (= .x.231 .x.235) (and (= .x.227 .x.238) (and (= .x.227 .x.230) (and (= .x.237 .x.231) (and (= .x.232 .x.235) (and (= .x.236 .x.230) (and (= .x.229 .x.238) (not (<= .x.219 .x.237))))))))))))))))) (let ((.def_211 (or Q1 (and (= S1_0 (store T1 0 0)) (and (= .x.200 0) (= .x.215 0)))))) (let ((.def_215 (= F1 .x.228))) (let ((.def_239 (= Q1 Q1_4))) (let ((.def_261 (not .loc.6))) (and (and (not .loc.4) (and (= D1 .x.226) (and (= C1 .x.225) (and (= B1 .x.224) (and (= A1 .x.223) (and (= Z .x.222) (and (= X .x.220) (and (= W .x.219) (and (= V .x.218) (and (= U .x.217) (and (= T .x.216) (and (= R .x.214) (and (= Q .x.213) (and (= P .x.212) (and (= O .x.211) (and (= N .x.210) (and (= M .x.209) (and (= L .x.208) (and (= K .x.207) (and (= I .x.205) (and (= H .x.204) (and (= G .x.203) (and (= F .x.202) (and (= E .x.201) (and (= C .x.199) (and (= A .x.197) (= B .x.198))))))))))))))))))))))))))) (or (or (and (and (not .loc.5) .loc.6) (or (and .def_57 (and (or Q1 (and .def_153 .def_155)) (and (or Q1 .def_201) (and (and .def_211 Q1_4) .def_215)))) (and (or Q1 (= .x.221 (store T1 O1 0))) (and (= R1 .x.200) (and (= J .x.206) (and (= S1 .x.215) (and (= E1 .x.227) (and (= H1 .x.230) (and (= I1 .x.231) (and (= J1 .x.232) (and (= K1 .x.233) (and (= L1 .x.234) (and (= M1 .x.235) (and (= N1 .x.236) (and (= P1 .x.238) (and (and .loc.3 (or Q1_4 (= .x.228 .x.233))) .def_239)))))))))))))))) (and (and .loc.5 (and .def_57 (and .def_215 (and .def_211 (and Q1 Q1_4))))) .def_261)) (and (or .def_201 Q1_4) (and (or (or Q1_4 (not .def_153)) (not .def_155)) (and .def_261 (and .def_239 (and .loc.5 (and .def_57 (and .def_211 .def_215)))))))))))))))))) (state |.x.197| |.x.198| |.x.199| |.x.200| |.x.201| |.x.202| |.x.203| |.x.204| |.x.205| |.x.206| |.x.207| |.x.208| |.x.209| |.x.210| |.x.211| |.x.212| |.x.213| |.x.214| |.x.215| |.x.216| |.x.217| |.x.218| |.x.219| |.x.220| |.x.221| |.x.222| |.x.223| |.x.224| |.x.225| |.x.226| |.x.227| |.x.228| |.x.229| |.x.230| |.x.231| |.x.232| |.x.233| |.x.234| |.x.235| |.x.236| |.x.237| |.x.238| |Q1_4| |.loc.5| |.loc.6| |.xtv.1|))))
(assert (forall ((|A| Int) (|B| Int) (|C| Int) (|R1| Int) (|E| Int) (|F| Int) (|G| Int) (|H| Int) (|I| Int) (|J| (Array Int Int)) (|K| (Array Int Int)) (|L| Int) (|M| Int) (|N| Int) (|O| Int) (|P| Int) (|Q| Int) (|R| Int) (|S1| Int) (|T| Int) (|U| Int) (|V| Int) (|W| Int) (|X| Int) (|T1| (Array Int Int)) (|Z| (Array Int Int)) (|A1| Int) (|B1| Int) (|C1| Int) (|D1| Int) (|E1| Int) (|F1| Int) (|G1| Int) (|H1| Int) (|I1| Int) (|J1| Int) (|K1| Int) (|L1| Int) (|M1| Int) (|N1| Int) (|O1| Int) (|P1| Int) (|Q1| Bool) (|.loc.3| Bool) (|.loc.4| Bool) (|S1_0| (Array Int Int)) (|.x.226| Int) (|.x.225| Int) (|.x.224| Int) (|.x.223| Int) (|.x.222| (Array Int Int)) (|.x.220| Int) (|.x.219| Int) (|.x.218| Int) (|.x.217| Int) (|.x.216| Int) (|.x.214| Int) (|.x.213| Int) (|.x.212| Int) (|.x.211| Int) (|.x.210| Int) (|.x.209| Int) (|.x.208| Int) (|.x.207| (Array Int Int)) (|.x.205| Int) (|.x.204| Int) (|.x.203| Int) (|.x.202| Int) (|.x.201| Int) (|.x.199| Int) (|.x.197| Int) (|.x.198| Int) (|.loc.5| Bool) (|.loc.6| Bool) (|.x.234| Int) (|.x.236| Int) (|.x.237| Int) (|.x.206| (Array Int Int)) (|.x.221| (Array Int Int)) (|.x.229| Int) (|.x.232| Int) (|.x.231| Int) (|.x.235| Int) (|.x.227| Int) (|.x.238| Int) (|.x.230| Int) (|.x.200| Int) (|.x.215| Int) (|Q1_4| Bool) (|.x.228| Int) (|.x.233| Int) (|.xtv.1| (Array Int Int))) (=> (state |A| |B| |C| |R1| |E| |F| |G| |H| |I| |J| |K| |L| |M| |N| |O| |P| |Q| |R| |S1| |T| |U| |V| |W| |X| |T1| |Z| |A1| |B1| |C1| |D1| |E1| |F1| |G1| |H1| |I1| |J1| |K1| |L1| |M1| |N1| |O1| |P1| |Q1| |.loc.3| |.loc.4| |S1_0|) (not (and Q1 (and .loc.4 (not .loc.3)))))))
(check-sat)
